NAME : XML100_3341_03
DIMENSION : 101
NB_CLUSTERS : 4
CLUSTERING_ALG : KMeans
CLUSTERING_PARAMS : k(3)
CLUSTERS
1 0
2 6 8 11 12 14 18 19 20 21 23 25 32 33 34 35 36 38 43 52 53 56 61 63 65 66 67 73 79 81 82 88 90 93 97 99 100
3 1 2 4 9 15 17 24 27 28 30 39 40 42 44 45 47 48 50 54 55 57 58 59 60 64 68 69 71 74 76 78 80 83 84 85 86 89 91 92 94 95 96 98
4 3 5 7 10 13 16 22 26 29 31 37 41 46 49 51 62 70 72 75 77 87
EOF